30
47
145
99
39
207
68
37
266
0
125
37
64
59
30
35
75
244
35
43
33
0
552
52
67
112
52
153
53
63
23
0
183
0
0
73
128
21
21
57
38
162
20
35
0
145
61
139
21
1007
77
37
52
56
108
44
24
46
108
31
93
30
34
41
0
34
37
34
0
31
60
233
35
0
98
46
21
110
33
111
147
44
46
50
29
54
93
365
183
55
35
113
127
90
0
105
90
71
31
206
